NAME: R4-120518-005619.tsp
TYPE: TSP
COMMENT: Random data
DIMENSION: 4
EDGE_WEIGHT_TYPE: EXPLICIT
EDGE_WEIGHT_FORMAT: FULL_MATRIX
DISPLAY_DATA_TYPE: NO_DISPLAY
EDGE_WEIGHT_SECTION
 0 85  1 96 
57  0 95 99 
62 12  0 30 
11 83 55  0 
EOF